! Geometry optimization - Input generated by PyRED
!
 $CONTRL ICHARG=0 MULT=1 RUNTYP=OPTIMIZE
         MPLEVL=0 UNITS=ANGS MAXIT=128 EXETYP=RUN
! INTTYP=HONDO QMTTOL=1.0E-08 ITOL=30 ICUT=20
         SCFTYP=RHF 
         COORD=UNIQUE 
         DFTTYP=NONE                                  $END
 $SCF    DIRSCF=.T. CONV=1.0E-08 FDIFF=.F.            $END
 $SYSTEM TIMLIM=50000 MWORDS=7680 MEMDDI=0            $END
 $BASIS  GBASIS=N31 NGAUSS=6 DIFFSP=.F.
         NDFUNC=1 NPFUNC=0                            $END
 $STATPT NSTEP=45 OPTTOL=1.0E-05 HESS=CALC IHREP=22    $END
 $GUESS  GUESS=HUCKEL                                 $END
 $DATA
 MOLECULE-1
 C1
 C           6 -11.70000000   5.63300000  18.19700000
 H           1 -12.59600000   5.01900000  18.28800000
 H           1 -11.48300000   6.10300000  19.15700000
 H           1 -11.86300000   6.40400000  17.44400000
 N           7 -10.58200000   4.80200000  17.80400000
 H           1 -10.78300000   4.36600000  16.91500000
 C           6  -9.37600000   5.62900000  17.68200000
 H           1  -9.16200000   6.05600000  18.66200000
 C           6  -9.58700000   6.78200000  16.70500000
 O           8  -8.98000000   7.85200000  16.86500000
 C           6 -10.54500000   6.61900000  15.53100000
 H           1 -10.56600000   7.53900000  14.94700000
 H           1 -10.20900000   5.79600000  14.89900000
 H           1 -11.54600000   6.40400000  15.90500000
 C           6  -8.17400000   4.78000000  17.26700000
 H           1  -7.26600000   5.34000000  17.48900000
 H           1  -8.17300000   3.86400000  17.85700000
 S          16  -8.15600000   4.34500000  15.53300000
 C           6  -5.46200000   1.42500000  16.48100000
 H           1  -5.11900000   0.89000000  17.35400000
 C           6  -6.41800000   2.41800000  16.59900000
 H           1  -6.82200000   2.65700000  17.57200000
 C           6  -6.86600000   3.11300000  15.47700000
 C           6  -6.34100000   2.80200000  14.24300000
 C           6  -5.39300000   1.81000000  14.11800000
 H           1  -4.99500000   1.56700000  13.14400000
 C           6  -4.95000000   1.12600000  15.23100000
 N           7  -3.95400000   0.09100000  15.13700000
 O           8  -3.41700000  -0.23400000  13.89100000
 O           8  -3.58500000  -0.48000000  16.11000000
 C           6  -6.75700000   3.50300000  12.96700000
 O           8  -7.90000000   3.71100000  12.71600000
 N           7  -5.66100000   3.86900000  12.09800000
 H           1  -4.73000000   3.66000000  12.42900000
 C           6  -5.76200000   4.50000000  10.81200000
 C           6  -4.61000000   4.82400000  10.17100000
 H           1  -3.65600000   4.63300000  10.63900000
 C           6  -4.66600000   5.39800000   8.91900000
 H           1  -3.75700000   5.68100000   8.40900000
 N           7  -5.86300000   5.60400000   8.33600000
 C           6  -7.00700000   5.26500000   8.95500000
 H           1  -7.95800000   5.43400000   8.47200000
 C           6  -6.95700000   4.69900000  10.21500000
 H           1  -7.86900000   4.41700000  10.72000000
 $END


