! Geometry optimization - Input generated by PyRED
!
 $CONTRL ICHARG=0 MULT=1 RUNTYP=OPTIMIZE
         MPLEVL=0 UNITS=ANGS MAXIT=128 EXETYP=RUN
! INTTYP=HONDO QMTTOL=1.0E-08 ITOL=30 ICUT=20
         SCFTYP=RHF 
         COORD=UNIQUE 
         DFTTYP=NONE                                  $END
 $SCF    DIRSCF=.T. CONV=1.0E-08 FDIFF=.F.            $END
 $SYSTEM TIMLIM=50000 MWORDS=7680 MEMDDI=0            $END
 $BASIS  GBASIS=N31 NGAUSS=6 DIFFSP=.F.
         NDFUNC=1 NPFUNC=0                            $END
 $STATPT NSTEP=45 OPTTOL=1.0E-05 HESS=CALC IHREP=22    $END
 $GUESS  GUESS=HUCKEL                                 $END
 $DATA
 MOLECULE-1
 C1
 C           6 -11.85612908   5.65791380  18.04162695
 H           1 -12.79260807   5.14032597  17.87195766
 H           1 -11.65573557   5.63517835  19.10741963
 H           1 -11.98880114   6.70102384  17.75028226
 N           7 -10.79845319   4.95911503  17.34037212
 H           1 -11.04763922   4.76060002  16.39318954
 C           6  -9.46928469   5.50555860  17.47465917
 H           1  -9.35242677   5.81454834  18.50788683
 C           6  -9.11400516   6.76417217  16.65482316
 O           8  -8.14449606   7.38457380  16.96975343
 C           6  -9.97075487   7.17507217  15.47789000
 H           1  -9.53699209   8.05524555  15.02353051
 H           1 -10.01868155   6.37928237  14.74114871
 H           1 -10.98579512   7.39596934  15.79091311
 C           6  -8.39907617   4.41856940  17.26840928
 H           1  -7.42500714   4.83118639  17.49038504
 H           1  -8.62720463   3.61290199  17.95052552
 S          16  -8.41652203   3.81366247  15.54685139
 C           6  -5.30888512   1.39342867  16.52914627
 H           1  -4.92089186   0.91621336  17.40620505
 C           6  -6.43337613   2.19279153  16.59715579
 H           1  -6.90951712   2.31819086  17.54765256
 C           6  -6.95586092   2.80900500  15.46298993
 C           6  -6.30525495   2.61479401  14.23172016
 C           6  -5.18152212   1.80946476  14.16451557
 H           1  -4.68899880   1.63118252  13.22964636
 C           6  -4.69607038   1.20664509  15.30819956
 N           7  -3.51704603   0.36089520  15.21816819
 O           8  -2.99917930   0.24619076  14.14824310
 O           8  -3.13683676  -0.16413062  16.21972264
 C           6  -6.84174371   3.21517139  12.95826330
 O           8  -8.00073836   3.14808291  12.67590321
 N           7  -5.88887028   3.80878668  12.18203793
 H           1  -4.98541347   3.90095975  12.58786602
 C           6  -6.03513447   4.40782987  10.92398605
 C           6  -4.90593985   4.99386351  10.35844839
 H           1  -3.96055599   4.98976063  10.87165827
 C           6  -5.01534793   5.58425392   9.11697694
 H           1  -4.15164875   6.04087033   8.66623309
 N           7  -6.13609946   5.63115630   8.41835175
 C           6  -7.19838898   5.07147132   8.96545221
 H           1  -8.10537135   5.11554539   8.38812807
 C           6  -7.22083023   4.44831479  10.20240871
 H           1  -8.12286512   4.02036245  10.58129657
 $END


