! Single point to get MEP - Input generated by PyRED
!
 $CONTRL ICHARG=0 MULT=1 RUNTYP=ENERGY MOLPLT=.T.
         MPLEVL=0 UNITS=ANGS MAXIT=128 EXETYP=RUN 
         SCFTYP=RHF 
         COORD=UNIQUE 
         DFTTYP=NONE                                   $END
 $SCF    DIRSCF=.T. CONV=1.0E-07                       $END
 $SYSTEM TIMLIM=5000 MWORDS=7680 MEMDDI=0              $END
 $BASIS  GBASIS=N31 NGAUSS=6 NDFUNC=1                  $END
 $GUESS  GUESS=HUCKEL                                  $END
! CHELPG/CONNOLLY CHARGES
 $ELPOT  IEPOT=1 WHERE=PDC OUTPUT=PUNCH                $END 
 $PDC    PTSEL=CONNOLLY CONSTR=CHARGE
         VDWSCL=1.4 VDWINC=0.2 LAYER=4 PTDENS=0.28     $END
 $DATA
 MOLECULE-1
 C1
 C           6   6.88606230  -2.39829982   0.96155255
 H           1   7.11690525  -3.07440214   0.14788727
 H           1   7.74026245  -1.74483835   1.09902292
 H           1   6.77029411  -2.99031300   1.87029417
 N           7   5.72778780  -1.60600631   0.60064414
 H           1   4.98892790  -2.17602899   0.24336680
 C           6   5.27329404  -0.64699032   1.57929794
 H           1   6.15478421  -0.22966730   2.05497449
 C           6   4.40702417  -1.16096230   2.74843505
 O           8   4.19209862  -0.41795972   3.65713659
 C           6   3.83732511  -2.56073539   2.72211164
 H           1   3.26825131  -2.72016512   3.62704060
 H           1   3.18559090  -2.68826000   1.86353993
 H           1   4.62255009  -3.30526515   2.65496439
 C           6   4.57572950   0.54902772   0.91099390
 H           1   4.28338807   1.25384199   1.67466391
 H           1   5.27437157   1.01088597   0.22836043
 S          16   3.08907823  -0.00000000   0.00000000
 C           6   1.86145934   3.86636086  -0.04102879
 H           1   2.30653687   4.84006912  -0.07627532
 C           6   2.64422187   2.72828661  -0.03880992
 H           1   3.70921665   2.83890006  -0.08135470
 C           6   2.07530598   1.45823223   0.00000000
 C           6   0.67600806   1.34605736   0.03046654
 C           6  -0.10868656   2.48630130   0.02563187
 H           1  -1.17814128   2.41736208   0.03311076
 C           6   0.48918903   3.73080982  -0.00886357
 N           7  -0.34889460   4.91924915  -0.01310984
 O           8  -1.53124485   4.76214924   0.04339272
 O           8   0.19646505   5.97886627  -0.06872054
 C           6   0.00000000   0.00000000   0.00000000
 O           8   0.30612704  -0.83255710  -0.80004716
 N           7  -0.97738134  -0.15154071   0.94058834
 H           1  -1.04651936   0.56934855   1.62275132
 C           6  -1.81651368  -1.25294339   1.15397546
 C           6  -2.65674459  -1.21513911   2.26313205
 H           1  -2.65361468  -0.37534119   2.93513248
 C           6  -3.50247009  -2.28026215   2.49208654
 H           1  -4.15771386  -2.26629578   3.34524555
 N           7  -3.56973372  -3.34906317   1.71807916
 C           6  -2.76908075  -3.37155103   0.66952890
 H           1  -2.83271293  -4.24576799   0.04549422
 C           6  -1.87579034  -2.36906175   0.32976418
 H           1  -1.25562257  -2.46154146  -0.53456072
 $END


