! Single point to get MEP - Input generated by PyRED
!
 $CONTRL ICHARG=0 MULT=1 RUNTYP=ENERGY MOLPLT=.T.
         MPLEVL=0 UNITS=ANGS MAXIT=128 EXETYP=RUN 
         SCFTYP=RHF 
         COORD=UNIQUE 
         DFTTYP=NONE                                   $END
 $SCF    DIRSCF=.T. CONV=1.0E-07                       $END
 $SYSTEM TIMLIM=5000 MWORDS=7680 MEMDDI=0              $END
 $BASIS  GBASIS=N31 NGAUSS=6 NDFUNC=1                  $END
 $GUESS  GUESS=HUCKEL                                  $END
! CHELPG/CONNOLLY CHARGES
 $ELPOT  IEPOT=1 WHERE=PDC OUTPUT=PUNCH                $END 
 $PDC    PTSEL=CONNOLLY CONSTR=CHARGE
         VDWSCL=1.4 VDWINC=0.2 LAYER=4 PTDENS=0.28     $END
 $DATA
 MOLECULE-1
 C1
 C           6   5.91257409  -1.74862331  -0.96155255
 H           1   6.59947526  -1.55223188  -0.14788727
 H           1   5.86362467  -2.82299463  -1.09902292
 H           1   6.33257983  -1.31563709  -1.87029417
 N           7   4.60087662  -1.24984622  -0.60064414
 H           1   4.64715465  -0.31780644  -0.24336680
 C           6   3.55401775  -1.42409531  -1.57929794
 H           1   3.71453376  -2.38608181  -2.05497449
 C           6   3.48154597  -0.41943690  -2.74843505
 O           8   2.74880049  -0.66708560  -3.65713659
 C           6   4.30567281   0.84734512  -2.72211164
 H           1   4.11173943   1.40560373  -3.62704060
 H           1   4.03835885   1.45526226  -1.86353993
 H           1   5.36520928   0.62760593  -2.65496439
 C           6   2.17381288  -1.53404961  -0.91099390
 H           1   1.42823257  -1.69633535  -1.67466391
 H           1   2.19338910  -2.37132529  -0.22836043
 S          16   1.77599984  -0.00000000  -0.00000000
 C           6  -2.09932597  -1.19901810   0.04102879
 H           1  -2.64475705  -2.12027090   0.07627532
 C           6  -0.71806487  -1.19209323   0.03880992
 H           1  -0.20096906  -2.12967584   0.08135470
 C           6  -0.00000000   0.00000000  -0.00000000
 C           6  -0.70663993   1.21296244  -0.03046654
 C           6  -2.09078538   1.20638547  -0.02563187
 H           1  -2.64464475   2.12384164  -0.03311076
 C           6  -2.77134442   0.00509613   0.00886357
 N           7  -4.22553739   0.01484486   0.01310984
 O           8  -4.77145282   1.07532061  -0.04339272
 O           8  -4.78426343  -1.03778557   0.06872054
 C           6   0.01269910   2.53637041   0.00000000
 O           8   0.87103515   2.76025499   0.80004716
 N           7  -0.42078097   3.42537767  -0.94058834
 H           1  -1.05215161   3.07064888  -1.62275132
 C           6   0.00456355   4.74306996  -1.15397546
 C           6  -0.50609540   5.41138469  -2.26313205
 H           1  -1.19384736   4.92944322  -2.93513248
 C           6  -0.11430274   6.71378142  -2.49208654
 H           1  -0.49979499   7.24381461  -3.34524555
 N           7   0.72486968   7.37910063  -1.71807916
 C           6   1.20036087   6.73453954  -0.66952890
 H           1   1.88183775   7.28580502  -0.04549422
 C           6   0.88714625   5.42884083  -0.32976418
 H           1   1.31708197   4.97242455   0.53456072
 $END


